NAME : XML100_2271_21
DIMENSION : 101
NB_CLUSTERS : 3
CLUSTERING_ALG : KMedoids
CLUSTERING_PARAMS : k(2)
CLUSTERS
1 0
2 3 4 6 7 10 13 14 15 19 20 23 24 28 31 32 33 36 45 51 54 57 58 60 61 62 63 67 68 72 78 79 83 84 86 88 92 93 94 97 99
3 1 2 5 8 9 11 12 16 17 18 21 22 25 26 27 29 30 34 35 37 38 39 40 41 42 43 44 46 47 48 49 50 52 53 55 56 59 64 65 66 69 70 71 73 74 75 76 77 80 81 82 85 87 89 90 91 95 96 98 100
EOF